NAME : to_solve
COMMENT : to be solved with tsp_solver (Copyright Chase Yalon)
TYPE : TSP
DIMENSION: 10
EDGE_WEIGHT_TYPE : EUC_2D
NODE_COORD_SECTION
1    52.26    257.49
2    71.99    284.17
3    398.02    330.97
4    226.67    292.2
5    176.27    216.53
6    179.98    143.41
7    369.48    67.34
8    29.28    164.41
9    194.15    260.12
10    276.53    159.78
